\ Model Optimierungsproblem
\ LP format - for model browsing. Use MPS format to capture full model detail.
Maximize
  x0 + x1 + x2 + x3 + x4 + x5 + x6 + x7 + x8 + x9 + x10 + x11 + x12 + x13
   + x14 + x15 + x16 + x17 + x18 + x19 + x20 + x21 + x22 + x23 + x24 + x25
   + x26 + x27 + x28 + x29 + x30 + x31 + x32 + x33 + x34 + x35 + x36 + x37
   + x38 + x39 + x40 + x41 + x42 + x43 + x44 + x45 + x46 + x47 + x48 + x49
   + x50 + x51 + x52 + x53 + x54 + x55 + x56 + x57 + x58 + x59 + x60 + x61
   + x62 + x63 + x64 + x65 + x66 + x67 + x68 + x69 + x70 + x71 + x72 + x73
   + x74 + x75 + x76 + x77 + x78 + x79 + x80 + x81 + x82 + x83 + x84 + x85
   + x86 + x87 + x88 + x89 + x90 + x91 + x92 + x93 + x94 + x95 + x96 + x97
   + x98 + x99 + x100 + x101 + x102 + x103 + x104 + x105 + x106 + x107
   + x108 + x109 + x110 + x111 + x112 + x113 + x114 + x115 + x116 + x117
   + x118 + x119 + x120
Subject To
 R0: x1 + x4 + x7 + x10 + x13 + x16 + x19 + x22 + x25 + x28 + x31 + x34
   + x37 + x40 + x43 + x46 + x49 + x52 + x55 + x58 + x61 + x64 + x67 + x70
   + x73 + x76 + x79 + x82 + x85 + x88 + x91 + x94 + x97 + x100 + x103
   + x106 + x109 + x112 + x115 + x118 <= 7
 R1: x0 + x4 + x5 + x6 + x13 + x14 + x15 + x22 + x23 + x24 + x31 + x32
   + x33 + x40 + x41 + x42 + x49 + x50 + x51 + x58 + x59 + x60 + x67 + x68
   + x69 + x76 + x77 + x78 + x85 + x86 + x87 + x94 + x95 + x96 + x103
   + x104 + x105 + x112 + x113 + x114 <= 7
 R2: x3 + x4 + x9 + x11 + x13 + x18 + x20 + x22 + x27 + x29 + x31 + x36
   + x38 + x40 + x45 + x47 + x49 + x54 + x56 + x58 + x63 + x65 + x67 + x72
   + x74 + x76 + x81 + x83 + x85 + x90 + x92 + x94 + x99 + x101 + x103
   + x108 + x110 + x112 + x117 + x119 <= 7
 R3: x2 + x4 + x8 + x12 + x13 + x17 + x21 + x22 + x26 + x30 + x31 + x35
   + x39 + x40 + x44 + x48 + x49 + x53 + x57 + x58 + x62 + x66 + x67 + x71
   + x75 + x76 + x80 + x84 + x85 + x89 + x93 + x94 + x98 + x102 + x103
   + x107 + x111 + x112 + x116 + x120 <= 7
 R4: x0 + x1 + x2 + x3 + x13 + x14 + x15 + x16 + x17 + x18 + x19 + x20
   + x21 + x40 + x41 + x42 + x43 + x44 + x45 + x46 + x47 + x48 + x67 + x68
   + x69 + x70 + x71 + x72 + x73 + x74 + x75 + x94 + x95 + x96 + x97 + x98
   + x99 + x100 + x101 + x102 <= 7
 R5: x1 + x6 + x9 + x12 + x13 + x16 + x19 + x24 + x27 + x30 + x32 + x35
   + x38 + x40 + x43 + x46 + x51 + x54 + x57 + x59 + x62 + x65 + x67 + x70
   + x73 + x78 + x81 + x84 + x86 + x89 + x92 + x94 + x97 + x100 + x105
   + x108 + x111 + x113 + x116 + x119 <= 7
 R6: x1 + x5 + x8 + x11 + x13 + x16 + x19 + x23 + x26 + x29 + x33 + x36
   + x39 + x40 + x43 + x46 + x50 + x53 + x56 + x60 + x63 + x66 + x67 + x70
   + x73 + x77 + x80 + x83 + x87 + x90 + x93 + x94 + x97 + x100 + x104
   + x107 + x110 + x114 + x117 + x120 <= 7
 R7: x0 + x10 + x11 + x12 + x13 + x14 + x15 + x28 + x29 + x30 + x34 + x35
   + x36 + x40 + x41 + x42 + x55 + x56 + x57 + x61 + x62 + x63 + x67 + x68
   + x69 + x82 + x83 + x84 + x88 + x89 + x90 + x94 + x95 + x96 + x109
   + x110 + x111 + x115 + x116 + x117 <= 7
 R8: x3 + x6 + x8 + x10 + x13 + x18 + x20 + x24 + x26 + x28 + x32 + x34
   + x39 + x40 + x45 + x47 + x51 + x53 + x55 + x59 + x61 + x66 + x67 + x72
   + x74 + x78 + x80 + x82 + x86 + x88 + x93 + x94 + x99 + x101 + x105
   + x107 + x109 + x113 + x115 + x120 <= 7
 R9: x2 + x5 + x9 + x10 + x13 + x17 + x21 + x23 + x27 + x28 + x33 + x34
   + x38 + x40 + x44 + x48 + x50 + x54 + x55 + x60 + x61 + x65 + x67 + x71
   + x75 + x77 + x81 + x82 + x87 + x88 + x92 + x94 + x98 + x102 + x104
   + x108 + x109 + x114 + x115 + x119 <= 7
 R10: x0 + x7 + x8 + x9 + x13 + x14 + x15 + x25 + x26 + x27 + x37 + x38
   + x39 + x40 + x41 + x42 + x52 + x53 + x54 + x64 + x65 + x66 + x67 + x68
   + x69 + x79 + x80 + x81 + x91 + x92 + x93 + x94 + x95 + x96 + x106
   + x107 + x108 + x118 + x119 + x120 <= 7
 R11: x2 + x6 + x7 + x11 + x13 + x17 + x21 + x24 + x25 + x29 + x32 + x36
   + x37 + x40 + x44 + x48 + x51 + x52 + x56 + x59 + x63 + x64 + x67 + x71
   + x75 + x78 + x79 + x83 + x86 + x90 + x91 + x94 + x98 + x102 + x105
   + x106 + x110 + x113 + x117 + x118 <= 7
 R12: x3 + x5 + x7 + x12 + x13 + x18 + x20 + x23 + x25 + x30 + x33 + x35
   + x37 + x40 + x45 + x47 + x50 + x52 + x57 + x60 + x62 + x64 + x67 + x72
   + x74 + x77 + x79 + x84 + x87 + x89 + x91 + x94 + x99 + x101 + x104
   + x106 + x111 + x114 + x116 + x118 <= 7
 R13: x0 + x1 + x2 + x3 + x4 + x5 + x6 + x7 + x8 + x9 + x10 + x11 + x12
   + x40 + x41 + x42 + x43 + x44 + x45 + x46 + x47 + x48 + x49 + x50 + x51
   + x52 + x53 + x54 + x55 + x56 + x57 + x58 + x59 + x60 + x61 + x62 + x63
   + x64 + x65 + x66 <= 7
 R14: x1 + x4 + x7 + x10 + x15 + x18 + x21 + x24 + x27 + x30 + x33 + x36
   + x39 + x40 + x43 + x46 + x49 + x52 + x55 + x58 + x61 + x64 + x69 + x72
   + x75 + x78 + x81 + x84 + x87 + x90 + x93 + x95 + x98 + x101 + x104
   + x107 + x110 + x113 + x116 + x119 <= 7
 R15: x1 + x4 + x7 + x10 + x14 + x17 + x20 + x23 + x26 + x29 + x32 + x35
   + x38 + x40 + x43 + x46 + x49 + x52 + x55 + x58 + x61 + x64 + x68 + x71
   + x74 + x77 + x80 + x83 + x86 + x89 + x92 + x96 + x99 + x102 + x105
   + x108 + x111 + x114 + x117 + x120 <= 7
 R16: x0 + x4 + x5 + x6 + x19 + x20 + x21 + x28 + x29 + x30 + x37 + x38
   + x39 + x40 + x41 + x42 + x49 + x50 + x51 + x58 + x59 + x60 + x73 + x74
   + x75 + x82 + x83 + x84 + x91 + x92 + x93 + x97 + x98 + x99 + x106
   + x107 + x108 + x115 + x116 + x117 <= 7
 R17: x3 + x4 + x9 + x11 + x15 + x17 + x19 + x24 + x26 + x28 + x33 + x35
   + x37 + x40 + x45 + x47 + x49 + x54 + x56 + x58 + x63 + x65 + x69 + x71
   + x73 + x78 + x80 + x82 + x87 + x89 + x91 + x95 + x97 + x102 + x104
   + x106 + x111 + x113 + x115 + x120 <= 7
 R18: x2 + x4 + x8 + x12 + x14 + x18 + x19 + x23 + x27 + x28 + x32 + x36
   + x37 + x40 + x44 + x48 + x49 + x53 + x57 + x58 + x62 + x66 + x68 + x72
   + x73 + x77 + x81 + x82 + x86 + x90 + x91 + x96 + x97 + x101 + x105
   + x106 + x110 + x114 + x115 + x119 <= 7
 R19: x0 + x4 + x5 + x6 + x16 + x17 + x18 + x25 + x26 + x27 + x34 + x35
   + x36 + x40 + x41 + x42 + x49 + x50 + x51 + x58 + x59 + x60 + x70 + x71
   + x72 + x79 + x80 + x81 + x88 + x89 + x90 + x100 + x101 + x102 + x109
   + x110 + x111 + x118 + x119 + x120 <= 7
 R20: x2 + x4 + x8 + x12 + x15 + x16 + x20 + x24 + x25 + x29 + x33 + x34
   + x38 + x40 + x44 + x48 + x49 + x53 + x57 + x58 + x62 + x66 + x69 + x70
   + x74 + x78 + x79 + x83 + x87 + x88 + x92 + x95 + x99 + x100 + x104
   + x108 + x109 + x113 + x117 + x118 <= 7
 R21: x3 + x4 + x9 + x11 + x14 + x16 + x21 + x23 + x25 + x30 + x32 + x34
   + x39 + x40 + x45 + x47 + x49 + x54 + x56 + x58 + x63 + x65 + x68 + x70
   + x75 + x77 + x79 + x84 + x86 + x88 + x93 + x96 + x98 + x100 + x105
   + x107 + x109 + x114 + x116 + x118 <= 7
 R22: x0 + x1 + x2 + x3 + x31 + x32 + x33 + x34 + x35 + x36 + x37 + x38
   + x39 + x40 + x41 + x42 + x43 + x44 + x45 + x46 + x47 + x48 + x85 + x86
   + x87 + x88 + x89 + x90 + x91 + x92 + x93 + x103 + x104 + x105 + x106
   + x107 + x108 + x109 + x110 + x111 <= 7
 R23: x1 + x6 + x9 + x12 + x15 + x18 + x21 + x23 + x26 + x29 + x31 + x34
   + x37 + x40 + x43 + x46 + x51 + x54 + x57 + x59 + x62 + x65 + x69 + x72
   + x75 + x77 + x80 + x83 + x85 + x88 + x91 + x95 + x98 + x101 + x103
   + x106 + x109 + x114 + x117 + x120 <= 7
 R24: x1 + x5 + x8 + x11 + x14 + x17 + x20 + x24 + x27 + x30 + x31 + x34
   + x37 + x40 + x43 + x46 + x50 + x53 + x56 + x60 + x63 + x66 + x68 + x71
   + x74 + x78 + x81 + x84 + x85 + x88 + x91 + x96 + x99 + x102 + x103
   + x106 + x109 + x113 + x116 + x119 <= 7
 R25: x0 + x10 + x11 + x12 + x19 + x20 + x21 + x25 + x26 + x27 + x31 + x32
   + x33 + x40 + x41 + x42 + x55 + x56 + x57 + x61 + x62 + x63 + x73 + x74
   + x75 + x79 + x80 + x81 + x85 + x86 + x87 + x97 + x98 + x99 + x103
   + x104 + x105 + x118 + x119 + x120 <= 7
 R26: x3 + x6 + x8 + x10 + x15 + x17 + x19 + x23 + x25 + x30 + x31 + x36
   + x38 + x40 + x45 + x47 + x51 + x53 + x55 + x59 + x61 + x66 + x69 + x71
   + x73 + x77 + x79 + x84 + x85 + x90 + x92 + x95 + x97 + x102 + x103
   + x108 + x110 + x114 + x116 + x118 <= 7
 R27: x2 + x5 + x9 + x10 + x14 + x18 + x19 + x24 + x25 + x29 + x31 + x35
   + x39 + x40 + x44 + x48 + x50 + x54 + x55 + x60 + x61 + x65 + x68 + x72
   + x73 + x78 + x79 + x83 + x85 + x89 + x93 + x96 + x97 + x101 + x103
   + x107 + x111 + x113 + x117 + x118 <= 7
 R28: x0 + x7 + x8 + x9 + x16 + x17 + x18 + x28 + x29 + x30 + x31 + x32
   + x33 + x40 + x41 + x42 + x52 + x53 + x54 + x64 + x65 + x66 + x70 + x71
   + x72 + x82 + x83 + x84 + x85 + x86 + x87 + x100 + x101 + x102 + x103
   + x104 + x105 + x115 + x116 + x117 <= 7
 R29: x2 + x6 + x7 + x11 + x15 + x16 + x20 + x23 + x27 + x28 + x31 + x35
   + x39 + x40 + x44 + x48 + x51 + x52 + x56 + x59 + x63 + x64 + x69 + x70
   + x74 + x77 + x81 + x82 + x85 + x89 + x93 + x95 + x99 + x100 + x103
   + x107 + x111 + x114 + x115 + x119 <= 7
 R30: x3 + x5 + x7 + x12 + x14 + x16 + x21 + x24 + x26 + x28 + x31 + x36
   + x38 + x40 + x45 + x47 + x50 + x52 + x57 + x60 + x62 + x64 + x68 + x70
   + x75 + x78 + x80 + x82 + x85 + x90 + x92 + x96 + x98 + x100 + x103
   + x108 + x110 + x113 + x115 + x120 <= 7
 R31: x0 + x1 + x2 + x3 + x22 + x23 + x24 + x25 + x26 + x27 + x28 + x29
   + x30 + x40 + x41 + x42 + x43 + x44 + x45 + x46 + x47 + x48 + x76 + x77
   + x78 + x79 + x80 + x81 + x82 + x83 + x84 + x112 + x113 + x114 + x115
   + x116 + x117 + x118 + x119 + x120 <= 7
 R32: x1 + x5 + x8 + x11 + x15 + x18 + x21 + x22 + x25 + x28 + x32 + x35
   + x38 + x40 + x43 + x46 + x50 + x53 + x56 + x60 + x63 + x66 + x69 + x72
   + x75 + x76 + x79 + x82 + x86 + x89 + x92 + x95 + x98 + x101 + x105
   + x108 + x111 + x112 + x115 + x118 <= 7
 R33: x1 + x6 + x9 + x12 + x14 + x17 + x20 + x22 + x25 + x28 + x33 + x36
   + x39 + x40 + x43 + x46 + x51 + x54 + x57 + x59 + x62 + x65 + x68 + x71
   + x74 + x76 + x79 + x82 + x87 + x90 + x93 + x96 + x99 + x102 + x104
   + x107 + x110 + x112 + x115 + x118 <= 7
 R34: x0 + x7 + x8 + x9 + x19 + x20 + x21 + x22 + x23 + x24 + x34 + x35
   + x36 + x40 + x41 + x42 + x52 + x53 + x54 + x64 + x65 + x66 + x73 + x74
   + x75 + x76 + x77 + x78 + x88 + x89 + x90 + x97 + x98 + x99 + x109
   + x110 + x111 + x112 + x113 + x114 <= 7
 R35: x3 + x5 + x7 + x12 + x15 + x17 + x19 + x22 + x27 + x29 + x32 + x34
   + x39 + x40 + x45 + x47 + x50 + x52 + x57 + x60 + x62 + x64 + x69 + x71
   + x73 + x76 + x81 + x83 + x86 + x88 + x93 + x95 + x97 + x102 + x105
   + x107 + x109 + x112 + x117 + x119 <= 7
 R36: x2 + x6 + x7 + x11 + x14 + x18 + x19 + x22 + x26 + x30 + x33 + x34
   + x38 + x40 + x44 + x48 + x51 + x52 + x56 + x59 + x63 + x64 + x68 + x72
   + x73 + x76 + x80 + x84 + x87 + x88 + x92 + x96 + x97 + x101 + x104
   + x108 + x109 + x112 + x116 + x120 <= 7
 R37: x0 + x10 + x11 + x12 + x16 + x17 + x18 + x22 + x23 + x24 + x37 + x38
   + x39 + x40 + x41 + x42 + x55 + x56 + x57 + x61 + x62 + x63 + x70 + x71
   + x72 + x76 + x77 + x78 + x91 + x92 + x93 + x100 + x101 + x102 + x106
   + x107 + x108 + x112 + x113 + x114 <= 7
 R38: x2 + x5 + x9 + x10 + x15 + x16 + x20 + x22 + x26 + x30 + x32 + x36
   + x37 + x40 + x44 + x48 + x50 + x54 + x55 + x60 + x61 + x65 + x69 + x70
   + x74 + x76 + x80 + x84 + x86 + x90 + x91 + x95 + x99 + x100 + x105
   + x106 + x110 + x112 + x116 + x120 <= 7
 R39: x3 + x6 + x8 + x10 + x14 + x16 + x21 + x22 + x27 + x29 + x33 + x35
   + x37 + x40 + x45 + x47 + x51 + x53 + x55 + x59 + x61 + x66 + x68 + x70
   + x75 + x76 + x81 + x83 + x87 + x89 + x91 + x96 + x98 + x100 + x104
   + x106 + x111 + x112 + x117 + x119 <= 7
 R40: x0 + x1 + x2 + x3 + x4 + x5 + x6 + x7 + x8 + x9 + x10 + x11 + x12
   + x13 + x14 + x15 + x16 + x17 + x18 + x19 + x20 + x21 + x22 + x23 + x24
   + x25 + x26 + x27 + x28 + x29 + x30 + x31 + x32 + x33 + x34 + x35 + x36
   + x37 + x38 + x39 <= 7
 R41: x1 + x4 + x7 + x10 + x13 + x16 + x19 + x22 + x25 + x28 + x31 + x34
   + x37 + x42 + x45 + x48 + x51 + x54 + x57 + x60 + x63 + x66 + x69 + x72
   + x75 + x78 + x81 + x84 + x87 + x90 + x93 + x96 + x99 + x102 + x105
   + x108 + x111 + x114 + x117 + x120 <= 7
 R42: x1 + x4 + x7 + x10 + x13 + x16 + x19 + x22 + x25 + x28 + x31 + x34
   + x37 + x41 + x44 + x47 + x50 + x53 + x56 + x59 + x62 + x65 + x68 + x71
   + x74 + x77 + x80 + x83 + x86 + x89 + x92 + x95 + x98 + x101 + x104
   + x107 + x110 + x113 + x116 + x119 <= 7
 R43: x0 + x4 + x5 + x6 + x13 + x14 + x15 + x22 + x23 + x24 + x31 + x32
   + x33 + x46 + x47 + x48 + x55 + x56 + x57 + x64 + x65 + x66 + x73 + x74
   + x75 + x82 + x83 + x84 + x91 + x92 + x93 + x100 + x101 + x102 + x109
   + x110 + x111 + x118 + x119 + x120 <= 7
 R44: x3 + x4 + x9 + x11 + x13 + x18 + x20 + x22 + x27 + x29 + x31 + x36
   + x38 + x42 + x44 + x46 + x51 + x53 + x55 + x60 + x62 + x64 + x69 + x71
   + x73 + x78 + x80 + x82 + x87 + x89 + x91 + x96 + x98 + x100 + x105
   + x107 + x109 + x114 + x116 + x118 <= 7
 R45: x2 + x4 + x8 + x12 + x13 + x17 + x21 + x22 + x26 + x30 + x31 + x35
   + x39 + x41 + x45 + x46 + x50 + x54 + x55 + x59 + x63 + x64 + x68 + x72
   + x73 + x77 + x81 + x82 + x86 + x90 + x91 + x95 + x99 + x100 + x104
   + x108 + x109 + x113 + x117 + x118 <= 7
 R46: x0 + x4 + x5 + x6 + x13 + x14 + x15 + x22 + x23 + x24 + x31 + x32
   + x33 + x43 + x44 + x45 + x52 + x53 + x54 + x61 + x62 + x63 + x70 + x71
   + x72 + x79 + x80 + x81 + x88 + x89 + x90 + x97 + x98 + x99 + x106
   + x107 + x108 + x115 + x116 + x117 <= 7
 R47: x2 + x4 + x8 + x12 + x13 + x17 + x21 + x22 + x26 + x30 + x31 + x35
   + x39 + x42 + x43 + x47 + x51 + x52 + x56 + x60 + x61 + x65 + x69 + x70
   + x74 + x78 + x79 + x83 + x87 + x88 + x92 + x96 + x97 + x101 + x105
   + x106 + x110 + x114 + x115 + x119 <= 7
 R48: x3 + x4 + x9 + x11 + x13 + x18 + x20 + x22 + x27 + x29 + x31 + x36
   + x38 + x41 + x43 + x48 + x50 + x52 + x57 + x59 + x61 + x66 + x68 + x70
   + x75 + x77 + x79 + x84 + x86 + x88 + x93 + x95 + x97 + x102 + x104
   + x106 + x111 + x113 + x115 + x120 <= 7
 R49: x0 + x1 + x2 + x3 + x13 + x14 + x15 + x16 + x17 + x18 + x19 + x20
   + x21 + x58 + x59 + x60 + x61 + x62 + x63 + x64 + x65 + x66 + x85 + x86
   + x87 + x88 + x89 + x90 + x91 + x92 + x93 + x112 + x113 + x114 + x115
   + x116 + x117 + x118 + x119 + x120 <= 7
 R50: x1 + x6 + x9 + x12 + x13 + x16 + x19 + x24 + x27 + x30 + x32 + x35
   + x38 + x42 + x45 + x48 + x50 + x53 + x56 + x58 + x61 + x64 + x69 + x72
   + x75 + x77 + x80 + x83 + x85 + x88 + x91 + x96 + x99 + x102 + x104
   + x107 + x110 + x112 + x115 + x118 <= 7
 R51: x1 + x5 + x8 + x11 + x13 + x16 + x19 + x23 + x26 + x29 + x33 + x36
   + x39 + x41 + x44 + x47 + x51 + x54 + x57 + x58 + x61 + x64 + x68 + x71
   + x74 + x78 + x81 + x84 + x85 + x88 + x91 + x95 + x98 + x101 + x105
   + x108 + x111 + x112 + x115 + x118 <= 7
 R52: x0 + x10 + x11 + x12 + x13 + x14 + x15 + x28 + x29 + x30 + x34 + x35
   + x36 + x46 + x47 + x48 + x52 + x53 + x54 + x58 + x59 + x60 + x73 + x74
   + x75 + x79 + x80 + x81 + x85 + x86 + x87 + x100 + x101 + x102 + x106
   + x107 + x108 + x112 + x113 + x114 <= 7
 R53: x3 + x6 + x8 + x10 + x13 + x18 + x20 + x24 + x26 + x28 + x32 + x34
   + x39 + x42 + x44 + x46 + x50 + x52 + x57 + x58 + x63 + x65 + x69 + x71
   + x73 + x77 + x79 + x84 + x85 + x90 + x92 + x96 + x98 + x100 + x104
   + x106 + x111 + x112 + x117 + x119 <= 7
 R54: x2 + x5 + x9 + x10 + x13 + x17 + x21 + x23 + x27 + x28 + x33 + x34
   + x38 + x41 + x45 + x46 + x51 + x52 + x56 + x58 + x62 + x66 + x68 + x72
   + x73 + x78 + x79 + x83 + x85 + x89 + x93 + x95 + x99 + x100 + x105
   + x106 + x110 + x112 + x116 + x120 <= 7
 R55: x0 + x7 + x8 + x9 + x13 + x14 + x15 + x25 + x26 + x27 + x37 + x38
   + x39 + x43 + x44 + x45 + x55 + x56 + x57 + x58 + x59 + x60 + x70 + x71
   + x72 + x82 + x83 + x84 + x85 + x86 + x87 + x97 + x98 + x99 + x109
   + x110 + x111 + x112 + x113 + x114 <= 7
 R56: x2 + x6 + x7 + x11 + x13 + x17 + x21 + x24 + x25 + x29 + x32 + x36
   + x37 + x42 + x43 + x47 + x50 + x54 + x55 + x58 + x62 + x66 + x69 + x70
   + x74 + x77 + x81 + x82 + x85 + x89 + x93 + x96 + x97 + x101 + x104
   + x108 + x109 + x112 + x116 + x120 <= 7
 R57: x3 + x5 + x7 + x12 + x13 + x18 + x20 + x23 + x25 + x30 + x33 + x35
   + x37 + x41 + x43 + x48 + x51 + x53 + x55 + x58 + x63 + x65 + x68 + x70
   + x75 + x78 + x80 + x82 + x85 + x90 + x92 + x95 + x97 + x102 + x105
   + x107 + x109 + x112 + x117 + x119 <= 7
 R58: x0 + x1 + x2 + x3 + x13 + x14 + x15 + x16 + x17 + x18 + x19 + x20
   + x21 + x49 + x50 + x51 + x52 + x53 + x54 + x55 + x56 + x57 + x76 + x77
   + x78 + x79 + x80 + x81 + x82 + x83 + x84 + x103 + x104 + x105 + x106
   + x107 + x108 + x109 + x110 + x111 <= 7
 R59: x1 + x5 + x8 + x11 + x13 + x16 + x19 + x23 + x26 + x29 + x33 + x36
   + x39 + x42 + x45 + x48 + x49 + x52 + x55 + x59 + x62 + x65 + x69 + x72
   + x75 + x76 + x79 + x82 + x86 + x89 + x92 + x96 + x99 + x102 + x103
   + x106 + x109 + x113 + x116 + x119 <= 7
 R60: x1 + x6 + x9 + x12 + x13 + x16 + x19 + x24 + x27 + x30 + x32 + x35
   + x38 + x41 + x44 + x47 + x49 + x52 + x55 + x60 + x63 + x66 + x68 + x71
   + x74 + x76 + x79 + x82 + x87 + x90 + x93 + x95 + x98 + x101 + x103
   + x106 + x109 + x114 + x117 + x120 <= 7
 R61: x0 + x7 + x8 + x9 + x13 + x14 + x15 + x25 + x26 + x27 + x37 + x38
   + x39 + x46 + x47 + x48 + x49 + x50 + x51 + x61 + x62 + x63 + x73 + x74
   + x75 + x76 + x77 + x78 + x88 + x89 + x90 + x100 + x101 + x102 + x103
   + x104 + x105 + x115 + x116 + x117 <= 7
 R62: x3 + x5 + x7 + x12 + x13 + x18 + x20 + x23 + x25 + x30 + x33 + x35
   + x37 + x42 + x44 + x46 + x49 + x54 + x56 + x59 + x61 + x66 + x69 + x71
   + x73 + x76 + x81 + x83 + x86 + x88 + x93 + x96 + x98 + x100 + x103
   + x108 + x110 + x113 + x115 + x120 <= 7
 R63: x2 + x6 + x7 + x11 + x13 + x17 + x21 + x24 + x25 + x29 + x32 + x36
   + x37 + x41 + x45 + x46 + x49 + x53 + x57 + x60 + x61 + x65 + x68 + x72
   + x73 + x76 + x80 + x84 + x87 + x88 + x92 + x95 + x99 + x100 + x103
   + x107 + x111 + x114 + x115 + x119 <= 7
 R64: x0 + x10 + x11 + x12 + x13 + x14 + x15 + x28 + x29 + x30 + x34 + x35
   + x36 + x43 + x44 + x45 + x49 + x50 + x51 + x64 + x65 + x66 + x70 + x71
   + x72 + x76 + x77 + x78 + x91 + x92 + x93 + x97 + x98 + x99 + x103
   + x104 + x105 + x118 + x119 + x120 <= 7
 R65: x2 + x5 + x9 + x10 + x13 + x17 + x21 + x23 + x27 + x28 + x33 + x34
   + x38 + x42 + x43 + x47 + x49 + x53 + x57 + x59 + x63 + x64 + x69 + x70
   + x74 + x76 + x80 + x84 + x86 + x90 + x91 + x96 + x97 + x101 + x103
   + x107 + x111 + x113 + x117 + x118 <= 7
 R66: x3 + x6 + x8 + x10 + x13 + x18 + x20 + x24 + x26 + x28 + x32 + x34
   + x39 + x41 + x43 + x48 + x49 + x54 + x56 + x60 + x62 + x64 + x68 + x70
   + x75 + x76 + x81 + x83 + x87 + x89 + x91 + x95 + x97 + x102 + x103
   + x108 + x110 + x114 + x116 + x118 <= 7
 R67: x0 + x1 + x2 + x3 + x4 + x5 + x6 + x7 + x8 + x9 + x10 + x11 + x12
   + x94 + x95 + x96 + x97 + x98 + x99 + x100 + x101 + x102 + x103 + x104
   + x105 + x106 + x107 + x108 + x109 + x110 + x111 + x112 + x113 + x114
   + x115 + x116 + x117 + x118 + x119 + x120 <= 7
 R68: x1 + x4 + x7 + x10 + x15 + x18 + x21 + x24 + x27 + x30 + x33 + x36
   + x39 + x42 + x45 + x48 + x51 + x54 + x57 + x60 + x63 + x66 + x68 + x71
   + x74 + x77 + x80 + x83 + x86 + x89 + x92 + x94 + x97 + x100 + x103
   + x106 + x109 + x112 + x115 + x118 <= 7
 R69: x1 + x4 + x7 + x10 + x14 + x17 + x20 + x23 + x26 + x29 + x32 + x35
   + x38 + x41 + x44 + x47 + x50 + x53 + x56 + x59 + x62 + x65 + x69 + x72
   + x75 + x78 + x81 + x84 + x87 + x90 + x93 + x94 + x97 + x100 + x103
   + x106 + x109 + x112 + x115 + x118 <= 7
 R70: x0 + x4 + x5 + x6 + x19 + x20 + x21 + x28 + x29 + x30 + x37 + x38
   + x39 + x46 + x47 + x48 + x55 + x56 + x57 + x64 + x65 + x66 + x70 + x71
   + x72 + x79 + x80 + x81 + x88 + x89 + x90 + x94 + x95 + x96 + x103
   + x104 + x105 + x112 + x113 + x114 <= 7
 R71: x3 + x4 + x9 + x11 + x15 + x17 + x19 + x24 + x26 + x28 + x33 + x35
   + x37 + x42 + x44 + x46 + x51 + x53 + x55 + x60 + x62 + x64 + x68 + x70
   + x75 + x77 + x79 + x84 + x86 + x88 + x93 + x94 + x99 + x101 + x103
   + x108 + x110 + x112 + x117 + x119 <= 7
 R72: x2 + x4 + x8 + x12 + x14 + x18 + x19 + x23 + x27 + x28 + x32 + x36
   + x37 + x41 + x45 + x46 + x50 + x54 + x55 + x59 + x63 + x64 + x69 + x70
   + x74 + x78 + x79 + x83 + x87 + x88 + x92 + x94 + x98 + x102 + x103
   + x107 + x111 + x112 + x116 + x120 <= 7
 R73: x0 + x4 + x5 + x6 + x16 + x17 + x18 + x25 + x26 + x27 + x34 + x35
   + x36 + x43 + x44 + x45 + x52 + x53 + x54 + x61 + x62 + x63 + x73 + x74
   + x75 + x82 + x83 + x84 + x91 + x92 + x93 + x94 + x95 + x96 + x103
   + x104 + x105 + x112 + x113 + x114 <= 7
 R74: x2 + x4 + x8 + x12 + x15 + x16 + x20 + x24 + x25 + x29 + x33 + x34
   + x38 + x42 + x43 + x47 + x51 + x52 + x56 + x60 + x61 + x65 + x68 + x72
   + x73 + x77 + x81 + x82 + x86 + x90 + x91 + x94 + x98 + x102 + x103
   + x107 + x111 + x112 + x116 + x120 <= 7
 R75: x3 + x4 + x9 + x11 + x14 + x16 + x21 + x23 + x25 + x30 + x32 + x34
   + x39 + x41 + x43 + x48 + x50 + x52 + x57 + x59 + x61 + x66 + x69 + x71
   + x73 + x78 + x80 + x82 + x87 + x89 + x91 + x94 + x99 + x101 + x103
   + x108 + x110 + x112 + x117 + x119 <= 7
 R76: x0 + x1 + x2 + x3 + x31 + x32 + x33 + x34 + x35 + x36 + x37 + x38
   + x39 + x58 + x59 + x60 + x61 + x62 + x63 + x64 + x65 + x66 + x76 + x77
   + x78 + x79 + x80 + x81 + x82 + x83 + x84 + x94 + x95 + x96 + x97 + x98
   + x99 + x100 + x101 + x102 <= 7
 R77: x1 + x6 + x9 + x12 + x15 + x18 + x21 + x23 + x26 + x29 + x31 + x34
   + x37 + x42 + x45 + x48 + x50 + x53 + x56 + x58 + x61 + x64 + x68 + x71
   + x74 + x76 + x79 + x82 + x87 + x90 + x93 + x94 + x97 + x100 + x105
   + x108 + x111 + x113 + x116 + x119 <= 7
 R78: x1 + x5 + x8 + x11 + x14 + x17 + x20 + x24 + x27 + x30 + x31 + x34
   + x37 + x41 + x44 + x47 + x51 + x54 + x57 + x58 + x61 + x64 + x69 + x72
   + x75 + x76 + x79 + x82 + x86 + x89 + x92 + x94 + x97 + x100 + x104
   + x107 + x110 + x114 + x117 + x120 <= 7
 R79: x0 + x10 + x11 + x12 + x19 + x20 + x21 + x25 + x26 + x27 + x31 + x32
   + x33 + x46 + x47 + x48 + x52 + x53 + x54 + x58 + x59 + x60 + x70 + x71
   + x72 + x76 + x77 + x78 + x91 + x92 + x93 + x94 + x95 + x96 + x109
   + x110 + x111 + x115 + x116 + x117 <= 7
 R80: x3 + x6 + x8 + x10 + x15 + x17 + x19 + x23 + x25 + x30 + x31 + x36
   + x38 + x42 + x44 + x46 + x50 + x52 + x57 + x58 + x63 + x65 + x68 + x70
   + x75 + x76 + x81 + x83 + x87 + x89 + x91 + x94 + x99 + x101 + x105
   + x107 + x109 + x113 + x115 + x120 <= 7
 R81: x2 + x5 + x9 + x10 + x14 + x18 + x19 + x24 + x25 + x29 + x31 + x35
   + x39 + x41 + x45 + x46 + x51 + x52 + x56 + x58 + x62 + x66 + x69 + x70
   + x74 + x76 + x80 + x84 + x86 + x90 + x91 + x94 + x98 + x102 + x104
   + x108 + x109 + x114 + x115 + x119 <= 7
 R82: x0 + x7 + x8 + x9 + x16 + x17 + x18 + x28 + x29 + x30 + x31 + x32
   + x33 + x43 + x44 + x45 + x55 + x56 + x57 + x58 + x59 + x60 + x73 + x74
   + x75 + x76 + x77 + x78 + x88 + x89 + x90 + x94 + x95 + x96 + x106
   + x107 + x108 + x118 + x119 + x120 <= 7
 R83: x2 + x6 + x7 + x11 + x15 + x16 + x20 + x23 + x27 + x28 + x31 + x35
   + x39 + x42 + x43 + x47 + x50 + x54 + x55 + x58 + x62 + x66 + x68 + x72
   + x73 + x76 + x80 + x84 + x87 + x88 + x92 + x94 + x98 + x102 + x105
   + x106 + x110 + x113 + x117 + x118 <= 7
 R84: x3 + x5 + x7 + x12 + x14 + x16 + x21 + x24 + x26 + x28 + x31 + x36
   + x38 + x41 + x43 + x48 + x51 + x53 + x55 + x58 + x63 + x65 + x69 + x71
   + x73 + x76 + x81 + x83 + x86 + x88 + x93 + x94 + x99 + x101 + x104
   + x106 + x111 + x114 + x116 + x118 <= 7
 R85: x0 + x1 + x2 + x3 + x22 + x23 + x24 + x25 + x26 + x27 + x28 + x29
   + x30 + x49 + x50 + x51 + x52 + x53 + x54 + x55 + x56 + x57 + x85 + x86
   + x87 + x88 + x89 + x90 + x91 + x92 + x93 + x94 + x95 + x96 + x97 + x98
   + x99 + x100 + x101 + x102 <= 7
 R86: x1 + x5 + x8 + x11 + x15 + x18 + x21 + x22 + x25 + x28 + x32 + x35
   + x38 + x42 + x45 + x48 + x49 + x52 + x55 + x59 + x62 + x65 + x68 + x71
   + x74 + x78 + x81 + x84 + x85 + x88 + x91 + x94 + x97 + x100 + x104
   + x107 + x110 + x114 + x117 + x120 <= 7
 R87: x1 + x6 + x9 + x12 + x14 + x17 + x20 + x22 + x25 + x28 + x33 + x36
   + x39 + x41 + x44 + x47 + x49 + x52 + x55 + x60 + x63 + x66 + x69 + x72
   + x75 + x77 + x80 + x83 + x85 + x88 + x91 + x94 + x97 + x100 + x105
   + x108 + x111 + x113 + x116 + x119 <= 7
 R88: x0 + x7 + x8 + x9 + x19 + x20 + x21 + x22 + x23 + x24 + x34 + x35
   + x36 + x46 + x47 + x48 + x49 + x50 + x51 + x61 + x62 + x63 + x70 + x71
   + x72 + x82 + x83 + x84 + x85 + x86 + x87 + x94 + x95 + x96 + x106
   + x107 + x108 + x118 + x119 + x120 <= 7
 R89: x3 + x5 + x7 + x12 + x15 + x17 + x19 + x22 + x27 + x29 + x32 + x34
   + x39 + x42 + x44 + x46 + x49 + x54 + x56 + x59 + x61 + x66 + x68 + x70
   + x75 + x78 + x80 + x82 + x85 + x90 + x92 + x94 + x99 + x101 + x104
   + x106 + x111 + x114 + x116 + x118 <= 7
 R90: x2 + x6 + x7 + x11 + x14 + x18 + x19 + x22 + x26 + x30 + x33 + x34
   + x38 + x41 + x45 + x46 + x49 + x53 + x57 + x60 + x61 + x65 + x69 + x70
   + x74 + x77 + x81 + x82 + x85 + x89 + x93 + x94 + x98 + x102 + x105
   + x106 + x110 + x113 + x117 + x118 <= 7
 R91: x0 + x10 + x11 + x12 + x16 + x17 + x18 + x22 + x23 + x24 + x37 + x38
   + x39 + x43 + x44 + x45 + x49 + x50 + x51 + x64 + x65 + x66 + x73 + x74
   + x75 + x79 + x80 + x81 + x85 + x86 + x87 + x94 + x95 + x96 + x109
   + x110 + x111 + x115 + x116 + x117 <= 7
 R92: x2 + x5 + x9 + x10 + x15 + x16 + x20 + x22 + x26 + x30 + x32 + x36
   + x37 + x42 + x43 + x47 + x49 + x53 + x57 + x59 + x63 + x64 + x68 + x72
   + x73 + x78 + x79 + x83 + x85 + x89 + x93 + x94 + x98 + x102 + x104
   + x108 + x109 + x114 + x115 + x119 <= 7
 R93: x3 + x6 + x8 + x10 + x14 + x16 + x21 + x22 + x27 + x29 + x33 + x35
   + x37 + x41 + x43 + x48 + x49 + x54 + x56 + x60 + x62 + x64 + x69 + x71
   + x73 + x77 + x79 + x84 + x85 + x90 + x92 + x94 + x99 + x101 + x105
   + x107 + x109 + x113 + x115 + x120 <= 7
 R94: x0 + x1 + x2 + x3 + x4 + x5 + x6 + x7 + x8 + x9 + x10 + x11 + x12
   + x67 + x68 + x69 + x70 + x71 + x72 + x73 + x74 + x75 + x76 + x77 + x78
   + x79 + x80 + x81 + x82 + x83 + x84 + x85 + x86 + x87 + x88 + x89 + x90
   + x91 + x92 + x93 <= 7
 R95: x1 + x4 + x7 + x10 + x14 + x17 + x20 + x23 + x26 + x29 + x32 + x35
   + x38 + x42 + x45 + x48 + x51 + x54 + x57 + x60 + x63 + x66 + x67 + x70
   + x73 + x76 + x79 + x82 + x85 + x88 + x91 + x95 + x98 + x101 + x104
   + x107 + x110 + x113 + x116 + x119 <= 7
 R96: x1 + x4 + x7 + x10 + x15 + x18 + x21 + x24 + x27 + x30 + x33 + x36
   + x39 + x41 + x44 + x47 + x50 + x53 + x56 + x59 + x62 + x65 + x67 + x70
   + x73 + x76 + x79 + x82 + x85 + x88 + x91 + x96 + x99 + x102 + x105
   + x108 + x111 + x114 + x117 + x120 <= 7
 R97: x0 + x4 + x5 + x6 + x16 + x17 + x18 + x25 + x26 + x27 + x34 + x35
   + x36 + x46 + x47 + x48 + x55 + x56 + x57 + x64 + x65 + x66 + x67 + x68
   + x69 + x76 + x77 + x78 + x85 + x86 + x87 + x97 + x98 + x99 + x106
   + x107 + x108 + x115 + x116 + x117 <= 7
 R98: x3 + x4 + x9 + x11 + x14 + x16 + x21 + x23 + x25 + x30 + x32 + x34
   + x39 + x42 + x44 + x46 + x51 + x53 + x55 + x60 + x62 + x64 + x67 + x72
   + x74 + x76 + x81 + x83 + x85 + x90 + x92 + x95 + x97 + x102 + x104
   + x106 + x111 + x113 + x115 + x120 <= 7
 R99: x2 + x4 + x8 + x12 + x15 + x16 + x20 + x24 + x25 + x29 + x33 + x34
   + x38 + x41 + x45 + x46 + x50 + x54 + x55 + x59 + x63 + x64 + x67 + x71
   + x75 + x76 + x80 + x84 + x85 + x89 + x93 + x96 + x97 + x101 + x105
   + x106 + x110 + x114 + x115 + x119 <= 7
 R100: x0 + x4 + x5 + x6 + x19 + x20 + x21 + x28 + x29 + x30 + x37 + x38
   + x39 + x43 + x44 + x45 + x52 + x53 + x54 + x61 + x62 + x63 + x67 + x68
   + x69 + x76 + x77 + x78 + x85 + x86 + x87 + x100 + x101 + x102 + x109
   + x110 + x111 + x118 + x119 + x120 <= 7
 R101: x2 + x4 + x8 + x12 + x14 + x18 + x19 + x23 + x27 + x28 + x32 + x36
   + x37 + x42 + x43 + x47 + x51 + x52 + x56 + x60 + x61 + x65 + x67 + x71
   + x75 + x76 + x80 + x84 + x85 + x89 + x93 + x95 + x99 + x100 + x104
   + x108 + x109 + x113 + x117 + x118 <= 7
 R102: x3 + x4 + x9 + x11 + x15 + x17 + x19 + x24 + x26 + x28 + x33 + x35
   + x37 + x41 + x43 + x48 + x50 + x52 + x57 + x59 + x61 + x66 + x67 + x72
   + x74 + x76 + x81 + x83 + x85 + x90 + x92 + x96 + x98 + x100 + x105
   + x107 + x109 + x114 + x116 + x118 <= 7
 R103: x0 + x1 + x2 + x3 + x22 + x23 + x24 + x25 + x26 + x27 + x28 + x29
   + x30 + x58 + x59 + x60 + x61 + x62 + x63 + x64 + x65 + x66 + x67 + x68
   + x69 + x70 + x71 + x72 + x73 + x74 + x75 + x103 + x104 + x105 + x106
   + x107 + x108 + x109 + x110 + x111 <= 7
 R104: x1 + x6 + x9 + x12 + x14 + x17 + x20 + x22 + x25 + x28 + x33 + x36
   + x39 + x42 + x45 + x48 + x50 + x53 + x56 + x58 + x61 + x64 + x67 + x70
   + x73 + x78 + x81 + x84 + x86 + x89 + x92 + x95 + x98 + x101 + x103
   + x106 + x109 + x114 + x117 + x120 <= 7
 R105: x1 + x5 + x8 + x11 + x15 + x18 + x21 + x22 + x25 + x28 + x32 + x35
   + x38 + x41 + x44 + x47 + x51 + x54 + x57 + x58 + x61 + x64 + x67 + x70
   + x73 + x77 + x80 + x83 + x87 + x90 + x93 + x96 + x99 + x102 + x103
   + x106 + x109 + x113 + x116 + x119 <= 7
 R106: x0 + x10 + x11 + x12 + x16 + x17 + x18 + x22 + x23 + x24 + x37 + x38
   + x39 + x46 + x47 + x48 + x52 + x53 + x54 + x58 + x59 + x60 + x67 + x68
   + x69 + x82 + x83 + x84 + x88 + x89 + x90 + x97 + x98 + x99 + x103
   + x104 + x105 + x118 + x119 + x120 <= 7
 R107: x3 + x6 + x8 + x10 + x14 + x16 + x21 + x22 + x27 + x29 + x33 + x35
   + x37 + x42 + x44 + x46 + x50 + x52 + x57 + x58 + x63 + x65 + x67 + x72
   + x74 + x78 + x80 + x82 + x86 + x88 + x93 + x95 + x97 + x102 + x103
   + x108 + x110 + x114 + x116 + x118 <= 7
 R108: x2 + x5 + x9 + x10 + x15 + x16 + x20 + x22 + x26 + x30 + x32 + x36
   + x37 + x41 + x45 + x46 + x51 + x52 + x56 + x58 + x62 + x66 + x67 + x71
   + x75 + x77 + x81 + x82 + x87 + x88 + x92 + x96 + x97 + x101 + x103
   + x107 + x111 + x113 + x117 + x118 <= 7
 R109: x0 + x7 + x8 + x9 + x19 + x20 + x21 + x22 + x23 + x24 + x34 + x35
   + x36 + x43 + x44 + x45 + x55 + x56 + x57 + x58 + x59 + x60 + x67 + x68
   + x69 + x79 + x80 + x81 + x91 + x92 + x93 + x100 + x101 + x102 + x103
   + x104 + x105 + x115 + x116 + x117 <= 7
 R110: x2 + x6 + x7 + x11 + x14 + x18 + x19 + x22 + x26 + x30 + x33 + x34
   + x38 + x42 + x43 + x47 + x50 + x54 + x55 + x58 + x62 + x66 + x67 + x71
   + x75 + x78 + x79 + x83 + x86 + x90 + x91 + x95 + x99 + x100 + x103
   + x107 + x111 + x114 + x115 + x119 <= 7
 R111: x3 + x5 + x7 + x12 + x15 + x17 + x19 + x22 + x27 + x29 + x32 + x34
   + x39 + x41 + x43 + x48 + x51 + x53 + x55 + x58 + x63 + x65 + x67 + x72
   + x74 + x77 + x79 + x84 + x87 + x89 + x91 + x96 + x98 + x100 + x103
   + x108 + x110 + x113 + x115 + x120 <= 7
 R112: x0 + x1 + x2 + x3 + x31 + x32 + x33 + x34 + x35 + x36 + x37 + x38
   + x39 + x49 + x50 + x51 + x52 + x53 + x54 + x55 + x56 + x57 + x67 + x68
   + x69 + x70 + x71 + x72 + x73 + x74 + x75 + x112 + x113 + x114 + x115
   + x116 + x117 + x118 + x119 + x120 <= 7
 R113: x1 + x5 + x8 + x11 + x14 + x17 + x20 + x24 + x27 + x30 + x31 + x34
   + x37 + x42 + x45 + x48 + x49 + x52 + x55 + x59 + x62 + x65 + x67 + x70
   + x73 + x77 + x80 + x83 + x87 + x90 + x93 + x95 + x98 + x101 + x105
   + x108 + x111 + x112 + x115 + x118 <= 7
 R114: x1 + x6 + x9 + x12 + x15 + x18 + x21 + x23 + x26 + x29 + x31 + x34
   + x37 + x41 + x44 + x47 + x49 + x52 + x55 + x60 + x63 + x66 + x67 + x70
   + x73 + x78 + x81 + x84 + x86 + x89 + x92 + x96 + x99 + x102 + x104
   + x107 + x110 + x112 + x115 + x118 <= 7
 R115: x0 + x7 + x8 + x9 + x16 + x17 + x18 + x28 + x29 + x30 + x31 + x32
   + x33 + x46 + x47 + x48 + x49 + x50 + x51 + x61 + x62 + x63 + x67 + x68
   + x69 + x79 + x80 + x81 + x91 + x92 + x93 + x97 + x98 + x99 + x109
   + x110 + x111 + x112 + x113 + x114 <= 7
 R116: x3 + x5 + x7 + x12 + x14 + x16 + x21 + x24 + x26 + x28 + x31 + x36
   + x38 + x42 + x44 + x46 + x49 + x54 + x56 + x59 + x61 + x66 + x67 + x72
   + x74 + x77 + x79 + x84 + x87 + x89 + x91 + x95 + x97 + x102 + x105
   + x107 + x109 + x112 + x117 + x119 <= 7
 R117: x2 + x6 + x7 + x11 + x15 + x16 + x20 + x23 + x27 + x28 + x31 + x35
   + x39 + x41 + x45 + x46 + x49 + x53 + x57 + x60 + x61 + x65 + x67 + x71
   + x75 + x78 + x79 + x83 + x86 + x90 + x91 + x96 + x97 + x101 + x104
   + x108 + x109 + x112 + x116 + x120 <= 7
 R118: x0 + x10 + x11 + x12 + x19 + x20 + x21 + x25 + x26 + x27 + x31 + x32
   + x33 + x43 + x44 + x45 + x49 + x50 + x51 + x64 + x65 + x66 + x67 + x68
   + x69 + x82 + x83 + x84 + x88 + x89 + x90 + x100 + x101 + x102 + x106
   + x107 + x108 + x112 + x113 + x114 <= 7
 R119: x2 + x5 + x9 + x10 + x14 + x18 + x19 + x24 + x25 + x29 + x31 + x35
   + x39 + x42 + x43 + x47 + x49 + x53 + x57 + x59 + x63 + x64 + x67 + x71
   + x75 + x77 + x81 + x82 + x87 + x88 + x92 + x95 + x99 + x100 + x105
   + x106 + x110 + x112 + x116 + x120 <= 7
 R120: x3 + x6 + x8 + x10 + x15 + x17 + x19 + x23 + x25 + x30 + x31 + x36
   + x38 + x41 + x43 + x48 + x49 + x54 + x56 + x60 + x62 + x64 + x67 + x72
   + x74 + x78 + x80 + x82 + x86 + x88 + x93 + x96 + x98 + x100 + x104
   + x106 + x111 + x112 + x117 + x119 <= 7
Bounds
Generals
 x0 x1 x2 x3 x4 x5 x6 x7 x8 x9 x10 x11 x12 x13 x14 x15 x16 x17 x18 x19 x20
 x21 x22 x23 x24 x25 x26 x27 x28 x29 x30 x31 x32 x33 x34 x35 x36 x37 x38
 x39 x40 x41 x42 x43 x44 x45 x46 x47 x48 x49 x50 x51 x52 x53 x54 x55 x56
 x57 x58 x59 x60 x61 x62 x63 x64 x65 x66 x67 x68 x69 x70 x71 x72 x73 x74
 x75 x76 x77 x78 x79 x80 x81 x82 x83 x84 x85 x86 x87 x88 x89 x90 x91 x92
 x93 x94 x95 x96 x97 x98 x99 x100 x101 x102 x103 x104 x105 x106 x107 x108
 x109 x110 x111 x112 x113 x114 x115 x116 x117 x118 x119 x120
End
